13 41
1 2 1
1 3 0
1 4 1
1 5 1
1 6 0
1 7 1
1 8 1
1 9 1
1 10 1
1 11 0
1 12 0
1 13 0
2 3 1
2 4 1
2 5 1
2 6 1
2 7 1
2 8 0
2 9 0
2 10 1
2 11 1
2 12 0
2 13 0
3 4 0
3 5 0
3 6 0
3 7 0
3 8 0
3 9 1
3 10 1
3 11 0
3 12 1
3 13 0
4 5 1
4 6 0
4 7 0
4 8 1
4 9 0
4 10 0
4 11 0
4 12 1
4 13 0
5 6 1
5 7 0
5 8 0
5 9 1
5 10 1
5 11 1
5 12 0
5 13 1
6 7 1
6 8 0
6 9 0
6 10 0
6 11 0
6 12 1
6 13 1
7 8 1
7 9 0
7 10 0
7 11 0
7 12 1
7 13 1
8 9 0
8 10 1
8 11 1
8 12 1
8 13 1
9 10 0
9 11 0
9 12 1
9 13 1
10 11 1
10 12 1
10 13 0
11 12 1
11 13 1
12 13 0
